NAME : 0
COMMENT : CVRP Instance
TYPE : CVRP
DIMENSION : 901
EDGE_WEIGHT_TYPE : EUC_2D
CAPACITY : 120
NODE_COORD_SECTION
1	574.0	541.0
2	212.0	480.0
3	351.0	194.0
4	597.0	624.0
5	569.0	534.0
6	208.0	355.0
7	281.0	423.0
8	348.0	484.0
9	344.0	0.0
10	299.0	549.0
11	306.0	44.0
12	968.0	993.0
13	583.0	681.0
14	100.0	644.0
15	601.0	630.0
16	300.0	69.0
17	594.0	626.0
18	558.0	499.0
19	515.0	566.0
20	359.0	465.0
21	582.0	683.0
22	381.0	399.0
23	572.0	690.0
24	731.0	530.0
25	439.0	514.0
26	289.0	395.0
27	691.0	801.0
28	564.0	690.0
29	354.0	468.0
30	309.0	482.0
31	301.0	377.0
32	544.0	510.0
33	973.0	904.0
34	304.0	540.0
35	430.0	460.0
36	377.0	473.0
37	566.0	524.0
38	698.0	371.0
39	810.0	688.0
40	435.0	473.0
41	545.0	443.0
42	385.0	341.0
43	523.0	482.0
44	233.0	480.0
45	415.0	592.0
46	695.0	397.0
47	291.0	34.0
48	708.0	367.0
49	574.0	543.0
50	724.0	890.0
51	501.0	534.0
52	589.0	662.0
53	574.0	443.0
54	962.0	936.0
55	345.0	536.0
56	569.0	660.0
57	805.0	308.0
58	319.0	570.0
59	376.0	488.0
60	354.0	472.0
61	456.0	457.0
62	206.0	336.0
63	986.0	957.0
64	318.0	338.0
65	532.0	512.0
66	735.0	875.0
67	407.0	602.0
68	952.0	952.0
69	503.0	590.0
70	740.0	884.0
71	670.0	932.0
72	444.0	369.0
73	198.0	518.0
74	565.0	665.0
75	224.0	480.0
76	290.0	375.0
77	710.0	899.0
78	532.0	566.0
79	320.0	338.0
80	621.0	686.0
81	573.0	538.0
82	559.0	514.0
83	680.0	456.0
84	569.0	528.0
85	294.0	550.0
86	740.0	440.0
87	565.0	669.0
88	626.0	712.0
89	582.0	685.0
90	575.0	692.0
91	767.0	368.0
92	955.0	940.0
93	198.0	553.0
94	380.0	474.0
95	216.0	444.0
96	377.0	462.0
97	572.0	510.0
98	584.0	626.0
99	676.0	923.0
100	268.0	516.0
101	684.0	905.0
102	603.0	653.0
103	247.0	68.0
104	351.0	473.0
105	313.0	46.0
106	537.0	557.0
107	277.0	34.0
108	598.0	759.0
109	274.0	416.0
110	667.0	928.0
111	223.0	530.0
112	573.0	546.0
113	534.0	567.0
114	487.0	489.0
115	583.0	656.0
116	523.0	555.0
117	532.0	560.0
118	321.0	472.0
119	667.0	584.0
120	234.0	285.0
121	338.0	393.0
122	705.0	370.0
123	561.0	692.0
124	579.0	686.0
125	585.0	680.0
126	635.0	446.0
127	786.0	671.0
128	361.0	459.0
129	720.0	497.0
130	565.0	520.0
131	537.0	519.0
132	569.0	541.0
133	716.0	917.0
134	514.0	566.0
135	210.0	565.0
136	562.0	650.0
137	319.0	463.0
138	527.0	548.0
139	699.0	473.0
140	507.0	332.0
141	545.0	485.0
142	557.0	516.0
143	615.0	457.0
144	306.0	493.0
145	525.0	478.0
146	694.0	383.0
147	643.0	571.0
148	670.0	819.0
149	227.0	258.0
150	570.0	689.0
151	564.0	530.0
152	715.0	490.0
153	527.0	565.0
154	701.0	520.0
155	221.0	336.0
156	401.0	114.0
157	315.0	476.0
158	540.0	762.0
159	426.0	498.0
160	205.0	520.0
161	599.0	622.0
162	570.0	689.0
163	586.0	646.0
164	566.0	537.0
165	326.0	65.0
166	304.0	381.0
167	650.0	841.0
168	531.0	483.0
169	513.0	597.0
170	575.0	688.0
171	578.0	647.0
172	577.0	648.0
173	227.0	351.0
174	358.0	506.0
175	519.0	560.0
176	524.0	549.0
177	433.0	470.0
178	588.0	620.0
179	436.0	469.0
180	323.0	385.0
181	275.0	369.0
182	718.0	860.0
183	339.0	464.0
184	378.0	402.0
185	325.0	73.0
186	307.0	321.0
187	513.0	559.0
188	583.0	528.0
189	691.0	806.0
190	447.0	471.0
191	409.0	527.0
192	779.0	375.0
193	218.0	524.0
194	642.0	460.0
195	676.0	803.0
196	297.0	80.0
197	551.0	518.0
198	452.0	270.0
199	299.0	498.0
200	38.0	233.0
201	431.0	384.0
202	326.0	55.0
203	754.0	642.0
204	620.0	704.0
205	375.0	390.0
206	290.0	306.0
207	136.0	603.0
208	789.0	372.0
209	528.0	489.0
210	742.0	904.0
211	574.0	545.0
212	220.0	525.0
213	579.0	646.0
214	591.0	656.0
215	505.0	536.0
216	353.0	554.0
217	188.0	536.0
218	700.0	864.0
219	679.0	622.0
220	375.0	367.0
221	715.0	874.0
222	276.0	510.0
223	522.0	593.0
224	547.0	535.0
225	197.0	525.0
226	698.0	374.0
227	568.0	537.0
228	657.0	648.0
229	355.0	567.0
230	336.0	435.0
231	278.0	425.0
232	636.0	855.0
233	530.0	489.0
234	578.0	721.0
235	229.0	497.0
236	409.0	90.0
237	381.0	466.0
238	209.0	530.0
239	540.0	503.0
240	176.0	566.0
241	570.0	541.0
242	735.0	876.0
243	539.0	556.0
244	614.0	715.0
245	438.0	472.0
246	374.0	348.0
247	294.0	424.0
248	512.0	494.0
249	649.0	584.0
250	442.0	476.0
251	527.0	491.0
252	336.0	428.0
253	587.0	668.0
254	578.0	547.0
255	527.0	549.0
256	591.0	646.0
257	372.0	63.0
258	295.0	71.0
259	520.0	518.0
260	568.0	690.0
261	289.0	542.0
262	279.0	498.0
263	809.0	436.0
264	507.0	326.0
265	597.0	648.0
266	458.0	402.0
267	525.0	549.0
268	463.0	439.0
269	585.0	611.0
270	372.0	473.0
271	258.0	528.0
272	589.0	740.0
273	592.0	537.0
274	274.0	78.0
275	516.0	553.0
276	601.0	609.0
277	600.0	621.0
278	546.0	513.0
279	561.0	524.0
280	776.0	897.0
281	428.0	522.0
282	239.0	555.0
283	602.0	611.0
284	238.0	493.0
285	314.0	37.0
286	318.0	492.0
287	318.0	463.0
288	763.0	600.0
289	578.0	666.0
290	580.0	638.0
291	227.0	571.0
292	680.0	910.0
293	312.0	326.0
294	754.0	337.0
295	595.0	638.0
296	580.0	532.0
297	580.0	661.0
298	401.0	584.0
299	322.0	444.0
300	254.0	538.0
301	554.0	501.0
302	140.0	552.0
303	695.0	481.0
304	604.0	613.0
305	516.0	545.0
306	539.0	575.0
307	584.0	696.0
308	975.0	961.0
309	209.0	574.0
310	408.0	407.0
311	300.0	291.0
312	740.0	877.0
313	496.0	564.0
314	92.0	782.0
315	589.0	745.0
316	371.0	455.0
317	595.0	658.0
318	671.0	577.0
319	213.0	496.0
320	572.0	660.0
321	374.0	477.0
322	720.0	499.0
323	370.0	50.0
324	382.0	372.0
325	441.0	516.0
326	303.0	463.0
327	185.0	558.0
328	442.0	466.0
329	566.0	686.0
330	687.0	801.0
331	304.0	492.0
332	272.0	497.0
333	332.0	447.0
334	226.0	382.0
335	537.0	521.0
336	303.0	485.0
337	522.0	544.0
338	385.0	487.0
339	347.0	430.0
340	573.0	692.0
341	359.0	14.0
342	217.0	526.0
343	675.0	700.0
344	557.0	541.0
345	700.0	662.0
346	492.0	545.0
347	607.0	395.0
348	490.0	549.0
349	589.0	650.0
350	531.0	562.0
351	694.0	369.0
352	224.0	488.0
353	795.0	271.0
354	607.0	497.0
355	340.0	243.0
356	675.0	856.0
357	308.0	507.0
358	321.0	341.0
359	344.0	539.0
360	353.0	469.0
361	980.0	969.0
362	580.0	673.0
363	439.0	449.0
364	538.0	557.0
365	255.0	538.0
366	528.0	566.0
367	528.0	556.0
368	662.0	947.0
369	547.0	537.0
370	202.0	577.0
371	576.0	533.0
372	324.0	73.0
373	584.0	736.0
374	596.0	732.0
375	383.0	474.0
376	463.0	403.0
377	589.0	604.0
378	387.0	490.0
379	201.0	361.0
380	583.0	636.0
381	602.0	608.0
382	583.0	624.0
383	446.0	445.0
384	590.0	653.0
385	304.0	10.0
386	178.0	537.0
387	397.0	393.0
388	976.0	845.0
389	580.0	527.0
390	446.0	464.0
391	269.0	427.0
392	589.0	688.0
393	699.0	664.0
394	199.0	454.0
395	431.0	433.0
396	377.0	467.0
397	234.0	476.0
398	287.0	49.0
399	358.0	456.0
400	360.0	446.0
401	589.0	602.0
402	921.0	953.0
403	747.0	321.0
404	169.0	539.0
405	297.0	375.0
406	275.0	321.0
407	680.0	475.0
408	383.0	475.0
409	585.0	684.0
410	463.0	439.0
411	659.0	666.0
412	172.0	541.0
413	965.0	996.0
414	78.0	852.0
415	287.0	393.0
416	720.0	483.0
417	494.0	542.0
418	193.0	509.0
419	512.0	558.0
420	601.0	622.0
421	304.0	470.0
422	438.0	473.0
423	350.0	539.0
424	440.0	517.0
425	578.0	647.0
426	577.0	686.0
427	223.0	447.0
428	320.0	458.0
429	193.0	568.0
430	369.0	465.0
431	348.0	518.0
432	431.0	494.0
433	661.0	452.0
434	564.0	665.0
435	367.0	346.0
436	468.0	422.0
437	347.0	410.0
438	547.0	513.0
439	208.0	569.0
440	305.0	93.0
441	289.0	446.0
442	297.0	531.0
443	305.0	329.0
444	667.0	918.0
445	501.0	554.0
446	514.0	556.0
447	520.0	481.0
448	530.0	504.0
449	363.0	25.0
450	193.0	581.0
451	655.0	837.0
452	522.0	558.0
453	405.0	586.0
454	625.0	412.0
455	239.0	492.0
456	531.0	549.0
457	356.0	35.0
458	324.0	545.0
459	397.0	427.0
460	393.0	442.0
461	534.0	576.0
462	501.0	571.0
463	588.0	660.0
464	444.0	373.0
465	408.0	594.0
466	490.0	250.0
467	666.0	454.0
468	305.0	496.0
469	274.0	510.0
470	556.0	444.0
471	348.0	483.0
472	795.0	377.0
473	580.0	525.0
474	168.0	351.0
475	275.0	392.0
476	691.0	498.0
477	205.0	518.0
478	292.0	327.0
479	303.0	45.0
480	520.0	588.0
481	303.0	388.0
482	518.0	552.0
483	662.0	469.0
484	610.0	697.0
485	277.0	42.0
486	448.0	451.0
487	809.0	677.0
488	290.0	520.0
489	545.0	486.0
490	409.0	447.0
491	350.0	484.0
492	585.0	724.0
493	618.0	435.0
494	209.0	521.0
495	319.0	452.0
496	77.0	852.0
497	494.0	558.0
498	295.0	300.0
499	89.0	863.0
500	511.0	573.0
501	580.0	540.0
502	578.0	702.0
503	194.0	555.0
504	191.0	519.0
505	320.0	467.0
506	410.0	498.0
507	323.0	91.0
508	646.0	684.0
509	637.0	434.0
510	598.0	617.0
511	271.0	414.0
512	455.0	449.0
513	568.0	521.0
514	432.0	517.0
515	725.0	866.0
516	635.0	846.0
517	589.0	628.0
518	510.0	539.0
519	526.0	437.0
520	371.0	473.0
521	267.0	517.0
522	373.0	478.0
523	374.0	49.0
524	622.0	786.0
525	580.0	696.0
526	344.0	438.0
527	663.0	846.0
528	325.0	188.0
529	533.0	556.0
530	303.0	433.0
531	716.0	375.0
532	566.0	676.0
533	176.0	548.0
534	647.0	668.0
535	667.0	640.0
536	365.0	561.0
537	200.0	581.0
538	303.0	442.0
539	612.0	721.0
540	387.0	480.0
541	283.0	38.0
542	522.0	555.0
543	459.0	323.0
544	0.0	387.0
545	742.0	550.0
546	516.0	573.0
547	324.0	78.0
548	593.0	725.0
549	231.0	477.0
550	257.0	532.0
551	573.0	665.0
552	778.0	316.0
553	514.0	538.0
554	334.0	569.0
555	733.0	545.0
556	597.0	599.0
557	582.0	635.0
558	521.0	484.0
559	546.0	510.0
560	614.0	450.0
561	585.0	640.0
562	80.0	831.0
563	247.0	533.0
564	694.0	231.0
565	494.0	552.0
566	567.0	456.0
567	563.0	512.0
568	246.0	395.0
569	583.0	737.0
570	299.0	548.0
571	226.0	454.0
572	569.0	528.0
573	611.0	686.0
574	607.0	731.0
575	582.0	633.0
576	436.0	571.0
577	219.0	542.0
578	265.0	488.0
579	81.0	859.0
580	1000.0	979.0
581	398.0	109.0
582	628.0	682.0
583	929.0	968.0
584	799.0	306.0
585	581.0	614.0
586	361.0	464.0
587	969.0	966.0
588	212.0	505.0
589	656.0	673.0
590	186.0	547.0
591	540.0	529.0
592	500.0	541.0
593	423.0	516.0
594	338.0	465.0
595	536.0	563.0
596	575.0	523.0
597	633.0	687.0
598	275.0	499.0
599	643.0	449.0
600	608.0	689.0
601	507.0	291.0
602	544.0	489.0
603	727.0	519.0
604	615.0	705.0
605	272.0	504.0
606	309.0	459.0
607	978.0	951.0
608	299.0	432.0
609	565.0	444.0
610	903.0	970.0
611	348.0	154.0
612	379.0	571.0
613	356.0	475.0
614	488.0	537.0
615	520.0	558.0
616	185.0	525.0
617	249.0	550.0
618	348.0	509.0
619	572.0	677.0
620	188.0	535.0
621	326.0	507.0
622	745.0	326.0
623	294.0	412.0
624	310.0	560.0
625	433.0	463.0
626	504.0	591.0
627	318.0	468.0
628	77.0	838.0
629	563.0	670.0
630	556.0	521.0
631	451.0	464.0
632	204.0	451.0
633	588.0	739.0
634	772.0	903.0
635	581.0	529.0
636	366.0	532.0
637	383.0	371.0
638	561.0	514.0
639	342.0	233.0
640	196.0	579.0
641	589.0	618.0
642	518.0	558.0
643	488.0	396.0
644	167.0	532.0
645	376.0	469.0
646	561.0	444.0
647	357.0	472.0
648	211.0	457.0
649	494.0	542.0
650	294.0	522.0
651	500.0	588.0
652	90.0	877.0
653	525.0	492.0
654	361.0	529.0
655	214.0	468.0
656	777.0	317.0
657	585.0	679.0
658	382.0	572.0
659	584.0	736.0
660	205.0	340.0
661	669.0	817.0
662	652.0	664.0
663	439.0	441.0
664	309.0	406.0
665	529.0	430.0
666	382.0	490.0
667	500.0	555.0
668	682.0	795.0
669	346.0	482.0
670	289.0	80.0
671	516.0	573.0
672	585.0	663.0
673	598.0	623.0
674	525.0	491.0
675	457.0	443.0
676	377.0	375.0
677	386.0	470.0
678	978.0	969.0
679	283.0	486.0
680	197.0	516.0
681	568.0	692.0
682	358.0	475.0
683	281.0	75.0
684	554.0	498.0
685	731.0	907.0
686	492.0	539.0
687	709.0	478.0
688	761.0	528.0
689	531.0	552.0
690	358.0	10.0
691	360.0	465.0
692	149.0	509.0
693	527.0	549.0
694	359.0	518.0
695	518.0	567.0
696	537.0	577.0
697	830.0	490.0
698	176.0	547.0
699	205.0	579.0
700	295.0	73.0
701	427.0	513.0
702	551.0	511.0
703	795.0	677.0
704	525.0	475.0
705	363.0	460.0
706	266.0	355.0
707	683.0	795.0
708	339.0	488.0
709	299.0	69.0
710	75.0	809.0
711	427.0	470.0
712	315.0	454.0
713	717.0	876.0
714	552.0	504.0
715	655.0	686.0
716	614.0	470.0
717	510.0	568.0
718	373.0	465.0
719	378.0	376.0
720	757.0	640.0
721	202.0	540.0
722	601.0	632.0
723	702.0	793.0
724	311.0	459.0
725	358.0	466.0
726	263.0	485.0
727	581.0	678.0
728	350.0	469.0
729	427.0	497.0
730	355.0	474.0
731	625.0	422.0
732	433.0	471.0
733	302.0	463.0
734	549.0	443.0
735	240.0	485.0
736	607.0	444.0
737	587.0	628.0
738	567.0	515.0
739	298.0	398.0
740	216.0	553.0
741	790.0	302.0
742	382.0	473.0
743	715.0	459.0
744	804.0	307.0
745	274.0	486.0
746	592.0	637.0
747	396.0	396.0
748	597.0	603.0
749	521.0	551.0
750	527.0	484.0
751	584.0	659.0
752	90.0	866.0
753	510.0	561.0
754	558.0	436.0
755	788.0	688.0
756	437.0	376.0
757	579.0	552.0
758	456.0	466.0
759	313.0	487.0
760	211.0	457.0
761	388.0	436.0
762	535.0	469.0
763	436.0	518.0
764	311.0	491.0
765	586.0	692.0
766	354.0	566.0
767	586.0	693.0
768	379.0	473.0
769	297.0	366.0
770	498.0	561.0
771	582.0	640.0
772	557.0	515.0
773	428.0	467.0
774	273.0	520.0
775	297.0	325.0
776	347.0	428.0
777	348.0	483.0
778	214.0	549.0
779	529.0	567.0
780	546.0	483.0
781	245.0	515.0
782	511.0	627.0
783	652.0	955.0
784	536.0	507.0
785	304.0	329.0
786	691.0	496.0
787	495.0	554.0
788	301.0	561.0
789	574.0	682.0
790	595.0	614.0
791	499.0	544.0
792	382.0	553.0
793	499.0	540.0
794	245.0	479.0
795	307.0	77.0
796	173.0	339.0
797	274.0	401.0
798	308.0	20.0
799	582.0	458.0
800	420.0	533.0
801	196.0	570.0
802	962.0	1000.0
803	248.0	367.0
804	348.0	474.0
805	518.0	555.0
806	308.0	547.0
807	583.0	624.0
808	333.0	440.0
809	535.0	488.0
810	597.0	602.0
811	648.0	439.0
812	588.0	457.0
813	579.0	649.0
814	260.0	531.0
815	519.0	480.0
816	587.0	637.0
817	554.0	440.0
818	699.0	372.0
819	342.0	414.0
820	510.0	536.0
821	280.0	473.0
822	759.0	899.0
823	528.0	565.0
824	464.0	402.0
825	575.0	530.0
826	154.0	538.0
827	568.0	688.0
828	487.0	537.0
829	307.0	521.0
830	274.0	42.0
831	797.0	868.0
832	418.0	497.0
833	278.0	57.0
834	461.0	450.0
835	602.0	729.0
836	378.0	469.0
837	637.0	438.0
838	578.0	543.0
839	249.0	545.0
840	764.0	393.0
841	524.0	470.0
842	382.0	476.0
843	289.0	517.0
844	575.0	550.0
845	590.0	594.0
846	518.0	558.0
847	197.0	330.0
848	400.0	470.0
849	192.0	509.0
850	224.0	483.0
851	518.0	559.0
852	305.0	495.0
853	229.0	358.0
854	450.0	286.0
855	643.0	441.0
856	358.0	12.0
857	978.0	919.0
858	717.0	538.0
859	762.0	341.0
860	235.0	486.0
861	254.0	487.0
862	514.0	587.0
863	377.0	479.0
864	212.0	464.0
865	241.0	508.0
866	524.0	552.0
867	807.0	424.0
868	438.0	253.0
869	631.0	484.0
870	577.0	528.0
871	175.0	562.0
872	655.0	576.0
873	422.0	480.0
874	543.0	495.0
875	339.0	412.0
876	778.0	898.0
877	310.0	283.0
878	598.0	623.0
879	547.0	776.0
880	515.0	560.0
881	352.0	467.0
882	527.0	563.0
883	494.0	558.0
884	298.0	71.0
885	171.0	345.0
886	305.0	515.0
887	315.0	482.0
888	444.0	460.0
889	676.0	846.0
890	350.0	464.0
891	948.0	919.0
892	585.0	597.0
893	151.0	863.0
894	412.0	467.0
895	312.0	469.0
896	212.0	450.0
897	797.0	892.0
898	528.0	552.0
899	585.0	658.0
900	509.0	539.0
901	480.0	441.0
DEMAND_SECTION
1	0
2	6
3	3
4	4
5	8
6	2
7	2
8	10
9	4
10	3
11	3
12	10
13	9
14	6
15	3
16	6
17	9
18	6
19	3
20	8
21	10
22	9
23	7
24	2
25	8
26	5
27	1
28	2
29	6
30	2
31	7
32	3
33	5
34	8
35	3
36	3
37	3
38	6
39	6
40	5
41	1
42	1
43	8
44	5
45	1
46	7
47	7
48	5
49	1
50	7
51	8
52	10
53	4
54	3
55	9
56	10
57	3
58	6
59	6
60	10
61	7
62	9
63	5
64	5
65	6
66	5
67	8
68	7
69	3
70	7
71	5
72	4
73	10
74	7
75	10
76	10
77	8
78	2
79	6
80	3
81	1
82	9
83	10
84	2
85	6
86	9
87	5
88	7
89	5
90	1
91	10
92	8
93	2
94	4
95	7
96	10
97	3
98	5
99	6
100	9
101	5
102	1
103	3
104	8
105	4
106	3
107	3
108	1
109	1
110	9
111	8
112	6
113	8
114	6
115	8
116	8
117	10
118	2
119	7
120	4
121	5
122	8
123	10
124	4
125	4
126	2
127	9
128	4
129	7
130	5
131	7
132	1
133	1
134	6
135	2
136	8
137	9
138	3
139	7
140	1
141	8
142	10
143	10
144	2
145	6
146	4
147	8
148	10
149	10
150	6
151	8
152	8
153	10
154	4
155	2
156	5
157	1
158	5
159	4
160	5
161	7
162	6
163	7
164	8
165	4
166	10
167	6
168	2
169	9
170	9
171	3
172	7
173	10
174	5
175	9
176	4
177	3
178	10
179	5
180	5
181	9
182	2
183	8
184	3
185	2
186	7
187	8
188	3
189	6
190	9
191	9
192	4
193	6
194	10
195	7
196	1
197	2
198	4
199	2
200	1
201	6
202	3
203	4
204	8
205	2
206	3
207	8
208	10
209	6
210	1
211	1
212	5
213	7
214	2
215	9
216	10
217	7
218	10
219	2
220	6
221	9
222	9
223	8
224	7
225	9
226	3
227	7
228	1
229	6
230	4
231	4
232	4
233	2
234	5
235	1
236	3
237	5
238	5
239	10
240	1
241	2
242	6
243	3
244	3
245	10
246	6
247	1
248	9
249	9
250	6
251	7
252	8
253	6
254	9
255	7
256	8
257	7
258	10
259	6
260	8
261	5
262	2
263	2
264	10
265	4
266	1
267	9
268	4
269	10
270	9
271	2
272	8
273	10
274	9
275	7
276	7
277	5
278	9
279	9
280	4
281	5
282	3
283	1
284	5
285	1
286	1
287	5
288	10
289	3
290	2
291	4
292	1
293	3
294	4
295	9
296	4
297	7
298	4
299	1
300	5
301	2
302	4
303	5
304	3
305	10
306	1
307	9
308	2
309	5
310	5
311	3
312	7
313	3
314	2
315	9
316	5
317	1
318	4
319	10
320	7
321	2
322	4
323	8
324	4
325	4
326	9
327	2
328	3
329	2
330	1
331	2
332	4
333	1
334	9
335	3
336	9
337	6
338	4
339	4
340	10
341	1
342	3
343	9
344	8
345	4
346	4
347	8
348	5
349	7
350	9
351	3
352	10
353	8
354	5
355	9
356	3
357	10
358	6
359	8
360	10
361	3
362	2
363	10
364	3
365	6
366	9
367	6
368	3
369	3
370	2
371	2
372	8
373	4
374	5
375	10
376	10
377	1
378	2
379	10
380	3
381	5
382	3
383	5
384	7
385	4
386	7
387	9
388	3
389	9
390	7
391	1
392	6
393	5
394	10
395	9
396	7
397	9
398	10
399	7
400	5
401	8
402	7
403	9
404	8
405	6
406	2
407	10
408	9
409	9
410	7
411	2
412	10
413	5
414	2
415	5
416	8
417	1
418	10
419	4
420	5
421	5
422	6
423	2
424	8
425	10
426	1
427	3
428	9
429	8
430	4
431	3
432	5
433	1
434	6
435	6
436	1
437	4
438	3
439	6
440	4
441	10
442	1
443	1
444	6
445	3
446	6
447	5
448	3
449	1
450	4
451	4
452	5
453	4
454	9
455	2
456	6
457	8
458	2
459	3
460	5
461	2
462	9
463	5
464	3
465	7
466	6
467	6
468	9
469	2
470	7
471	8
472	1
473	4
474	7
475	8
476	4
477	2
478	4
479	2
480	10
481	7
482	2
483	1
484	7
485	6
486	6
487	3
488	7
489	9
490	8
491	3
492	8
493	6
494	4
495	2
496	4
497	3
498	5
499	3
500	4
501	6
502	7
503	10
504	9
505	10
506	2
507	7
508	9
509	2
510	4
511	4
512	10
513	6
514	7
515	9
516	2
517	9
518	5
519	10
520	3
521	2
522	5
523	8
524	9
525	6
526	1
527	7
528	8
529	10
530	5
531	7
532	9
533	10
534	2
535	7
536	1
537	10
538	5
539	8
540	9
541	6
542	10
543	8
544	1
545	3
546	7
547	10
548	10
549	7
550	2
551	2
552	9
553	2
554	3
555	3
556	5
557	2
558	1
559	8
560	5
561	5
562	4
563	5
564	3
565	6
566	1
567	3
568	2
569	2
570	6
571	7
572	9
573	9
574	8
575	10
576	3
577	10
578	6
579	5
580	8
581	4
582	1
583	8
584	9
585	4
586	4
587	9
588	6
589	2
590	7
591	7
592	6
593	8
594	9
595	4
596	2
597	9
598	7
599	7
600	2
601	6
602	2
603	9
604	8
605	10
606	8
607	2
608	6
609	8
610	8
611	4
612	2
613	7
614	1
615	8
616	7
617	1
618	5
619	6
620	7
621	5
622	6
623	9
624	2
625	8
626	7
627	3
628	8
629	6
630	5
631	6
632	9
633	1
634	5
635	9
636	7
637	10
638	8
639	8
640	2
641	4
642	4
643	2
644	6
645	9
646	9
647	6
648	3
649	8
650	7
651	4
652	2
653	5
654	8
655	7
656	5
657	1
658	8
659	4
660	1
661	9
662	10
663	8
664	9
665	6
666	4
667	8
668	1
669	10
670	4
671	3
672	10
673	10
674	1
675	1
676	1
677	6
678	1
679	8
680	8
681	1
682	1
683	9
684	3
685	7
686	9
687	10
688	7
689	7
690	7
691	7
692	6
693	4
694	8
695	10
696	7
697	8
698	5
699	5
700	1
701	10
702	1
703	3
704	3
705	3
706	6
707	6
708	2
709	5
710	2
711	6
712	10
713	8
714	9
715	4
716	4
717	10
718	7
719	2
720	7
721	8
722	10
723	10
724	3
725	2
726	1
727	3
728	6
729	6
730	7
731	4
732	5
733	4
734	5
735	3
736	4
737	1
738	3
739	1
740	2
741	5
742	9
743	1
744	9
745	3
746	1
747	1
748	1
749	5
750	4
751	5
752	3
753	10
754	3
755	10
756	2
757	9
758	1
759	10
760	7
761	10
762	6
763	9
764	6
765	1
766	2
767	1
768	6
769	2
770	5
771	8
772	6
773	6
774	2
775	3
776	4
777	3
778	1
779	2
780	9
781	6
782	5
783	4
784	9
785	10
786	4
787	9
788	9
789	7
790	6
791	9
792	6
793	10
794	4
795	10
796	8
797	10
798	7
799	9
800	3
801	3
802	2
803	8
804	4
805	2
806	6
807	5
808	5
809	5
810	7
811	6
812	3
813	4
814	10
815	1
816	5
817	1
818	6
819	1
820	3
821	2
822	8
823	6
824	6
825	8
826	6
827	6
828	10
829	5
830	4
831	10
832	8
833	4
834	4
835	10
836	5
837	7
838	10
839	10
840	1
841	2
842	9
843	4
844	1
845	7
846	2
847	6
848	5
849	6
850	6
851	8
852	2
853	4
854	1
855	7
856	7
857	4
858	4
859	9
860	3
861	9
862	9
863	2
864	3
865	7
866	1
867	9
868	2
869	10
870	9
871	5
872	10
873	1
874	9
875	5
876	1
877	2
878	7
879	7
880	3
881	7
882	9
883	5
884	3
885	8
886	9
887	4
888	8
889	10
890	9
891	4
892	2
893	9
894	5
895	8
896	3
897	3
898	10
899	7
900	3
901	6
DEPOT_SECTION
1
-1
EOF
